86
115
135
92
21
27
59
126
26
136
168
29
130
123
135
2
58
167
56
42
173
119
137
124
170
126
180
73
170
81
125
127
105
129
57
95
145
167
164
150
8
178
184
51
199
60
168
12
186
139
170
178
1
102
92
156
80
41
89
19
129
117
171
75
127
56
153
165
83
24
71
29
19
168
115
149
123
45
51
155
88
28
150
100
164
114
56
91
165
136
151
28
7
121
195
37
193
28
11
129
